joueur/fichiers_cnf/map0.cnf
c map0.map
p cnf 6 16
-3 -4 0
-3 -5 0
-4 -5 0
-1 -2 0
-2 -5 0
-1 -4 0
-5 1 0
-4 2 0
-3 0
-4 0
-5 0
-4 0
-5 0
-3 0
1 0
-2 0
